c FILE /home/rafael/Documents/HappySet/MIHS/inputs/happygen/output/graph_d_regular_k5_p0.4_v100_20241127_084048.txt
c SOURCE This is a d-regular graph formed for the happy graph colouring problem.
c DESCRIPTION It was generated using the problem generator of Rhyd Lewis
c
c GRAPH STATS
c Seed                             = -62498579
c Number of Nodes                  = 100
c Number of colours k              = 5
c Number of pre-assignments        = 40
c Degree of all vertices           = 6
c Density                          = 0.0606061
c 
c The degrees of nodes 1 to 100, respectively, are as follows 
c [6, 6, 6, 6, 6, 6, 6, 6, 6, 6, 6, 6, 6, 6, 6, 6, 6, 6, 6, 6, 6, 6, 6, 6, 6, 6, 
c  6, 6, 6, 6, 6, 6, 6, 6, 6, 6, 6, 6, 6, 6, 6, 6, 6, 6, 6, 6, 6, 6, 6, 6, 6, 
c  6, 6, 6, 6, 6, 6, 6, 6, 6, 6, 6, 6, 6, 6, 6, 6, 6, 6, 6, 6, 6, 6, 6, 6, 6, 
c  6, 6, 6, 6, 6, 6, 6, 6, 6, 6, 6, 6, 6, 6, 6, 6, 6, 6, 6, 6, 6, 6, 6, 6] 
c  
p edge 100 300 5
e 1 12
e 1 29
e 1 35
e 1 46
e 1 60
e 1 73
e 2 6
e 2 9
e 2 33
e 2 65
e 2 97
e 2 99
e 3 14
e 3 31
e 3 42
e 3 53
e 3 70
e 3 96
e 4 62
e 4 68
e 4 71
e 4 82
e 4 85
e 4 90
e 5 36
e 5 37
e 5 45
e 5 72
e 5 89
e 5 99
e 6 7
e 6 38
e 6 70
e 6 85
e 6 100
e 7 36
e 7 52
e 7 60
e 7 79
e 7 90
e 8 21
e 8 23
e 8 41
e 8 48
e 8 61
e 8 97
e 9 20
e 9 62
e 9 67
e 9 78
e 9 94
e 10 22
e 10 31
e 10 56
e 10 60
e 10 72
e 10 91
e 11 23
e 11 27
e 11 43
e 11 49
e 11 72
e 11 84
e 12 17
e 12 42
e 12 44
e 12 80
e 12 92
e 13 43
e 13 44
e 13 47
e 13 49
e 13 65
e 13 79
e 14 37
e 14 40
e 14 41
e 14 70
e 14 97
e 15 20
e 15 22
e 15 33
e 15 61
e 15 63
e 15 75
e 16 21
e 16 25
e 16 32
e 16 53
e 16 59
e 16 71
e 17 24
e 17 41
e 17 50
e 17 66
e 17 79
e 18 19
e 18 34
e 18 55
e 18 58
e 18 71
e 18 88
e 19 39
e 19 46
e 19 64
e 19 74
e 19 78
e 20 34
e 20 50
e 20 87
e 20 95
e 21 26
e 21 54
e 21 75
e 21 84
e 22 29
e 22 44
e 22 65
e 22 91
e 23 32
e 23 54
e 23 82
e 23 95
e 24 37
e 24 45
e 24 52
e 24 71
e 24 72
e 25 39
e 25 43
e 25 50
e 25 74
e 25 94
e 26 29
e 26 30
e 26 78
e 26 91
e 26 96
e 27 38
e 27 39
e 27 44
e 27 51
e 27 79
e 28 49
e 28 62
e 28 69
e 28 84
e 28 93
e 28 100
e 29 46
e 29 80
e 29 85
e 30 31
e 30 33
e 30 56
e 30 67
e 30 75
e 31 40
e 31 73
e 31 89
e 32 35
e 32 53
e 32 61
e 32 63
e 33 52
e 33 64
e 33 86
e 34 56
e 34 62
e 34 66
e 34 86
e 35 45
e 35 75
e 35 92
e 35 97
e 36 48
e 36 86
e 36 93
e 36 94
e 37 42
e 37 66
e 37 83
e 38 43
e 38 64
e 38 89
e 38 100
e 39 54
e 39 87
e 39 88
e 40 45
e 40 52
e 40 57
e 40 95
e 41 55
e 41 71
e 41 87
e 42 61
e 42 88
e 42 94
e 43 67
e 43 90
e 44 69
e 44 83
e 45 48
e 45 92
e 46 50
e 46 67
e 46 100
e 47 49
e 47 51
e 47 55
e 47 59
e 47 79
e 48 61
e 48 90
e 48 100
e 49 81
e 49 94
e 50 52
e 50 57
e 51 73
e 51 74
e 51 89
e 51 98
e 52 98
e 53 58
e 53 87
e 53 96
e 54 71
e 54 79
e 54 100
e 55 77
e 55 81
e 55 93
e 56 60
e 56 65
e 56 77
e 57 58
e 57 67
e 57 69
e 57 78
e 58 90
e 58 96
e 58 98
e 59 61
e 59 95
e 59 98
e 59 99
e 60 63
e 60 97
e 62 85
e 62 96
e 63 67
e 63 93
e 63 99
e 64 70
e 64 76
e 64 89
e 65 81
e 65 98
e 66 73
e 66 82
e 66 96
e 68 76
e 68 80
e 68 83
e 68 84
e 68 92
e 69 81
e 69 84
e 69 91
e 70 76
e 70 89
e 72 80
e 72 92
e 73 77
e 73 97
e 74 75
e 74 80
e 74 87
e 75 76
e 76 88
e 76 93
e 77 80
e 77 82
e 77 99
e 78 82
e 78 83
e 81 88
e 81 92
e 82 93
e 83 84
e 83 86
e 85 86
e 85 98
e 86 90
e 87 95
e 88 99
e 91 94
e 91 95
n 2 4
n 3 5
n 4 2
n 5 3
n 11 5
n 12 5
n 13 4
n 20 3
n 21 2
n 22 5
n 23 5
n 24 5
n 25 5
n 26 2
n 27 5
n 31 5
n 32 5
n 40 5
n 42 5
n 52 5
n 56 4
n 58 3
n 59 5
n 60 4
n 61 5
n 62 2
n 66 2
n 68 2
n 69 5
n 70 5
n 75 2
n 78 2
n 81 5
n 86 3
n 87 3
n 88 5
n 93 1
n 94 5
n 97 4
n 100 3
